data/CVRPLIB/Vrp-Set-XML100/instances/XML100_1212_09.vrp
NAME : XML100_1212_09
COMMENT : Generated by Queiroga, Sadykov, Uchoa, and Vidal (2021)
TYPE : CVRP
DIMENSION : 101
EDGE_WEIGHT_TYPE : EUC_2D
CAPACITY : 5
NODE_COORD_SECTION
1    430  381 
2    868  362 
3    735  797 
4    639  904 
5    617  969 
6    318  630 
7    669  940 
8    671  984 
9    274  626 
10   172  568 
11   216  693 
12   734  911 
13   166  576 
14   688  924 
15   233  784 
16   844  811 
17   237  553 
18   474  806 
19   121  427 
20   195  589 
21   587  895 
22   132  559 
23   156  60  
24   259  690 
25   750  758 
26   198  505 
27   124  520 
28   240  536 
29   188  633 
30   627  977 
31   630  887 
32   196  645 
33   785  916 
34   583  892 
35   111  603 
36   346  558 
37   658  945 
38   678  948 
39   680  977 
40   54   682 
41   236  662 
42   853  910 
43   252  594 
44   702  962 
45   489  822 
46   349  469 
47   186  647 
48   609  893 
49   636  966 
50   75   543 
51   630  975 
52   589  965 
53   183  769 
54   636  984 
55   220  555 
56   653  900 
57   689  926 
58   195  604 
59   716  894 
60   164  610 
61   701  850 
62   239  684 
63   158  587 
64   663  913 
65   185  585 
66   581  910 
67   105  646 
68   220  582 
69   380  595 
70   289  675 
71   668  817 
72   686  958 
73   288  723 
74   158  631 
75   658  957 
76   62   588 
77   172  588 
78   136  592 
79   618  951 
80   621  938 
81   637  965 
82   693  920 
83   157  608 
84   290  458 
85   117  592 
86   189  591 
87   242  599 
88   684  942 
89   121  620 
90   189  619 
91   111  551 
92   173  563 
93   650  928 
94   742  847 
95   678  869 
96   652  911 
97   265  535 
98   243  600 
99   715  890 
100  469  799 
101  351  481 
DEMAND_SECTION
1    0   
2    1   
3    1   
4    1   
5    1   
6    1   
7    1   
8    1   
9    1   
10   1   
11   1   
12   1   
13   1   
14   1   
15   1   
16   1   
17   1   
18   1   
19   1   
20   1   
21   1   
22   1   
23   1   
24   1   
25   1   
26   1   
27   1   
28   1   
29   1   
30   1   
31   1   
32   1   
33   1   
34   1   
35   1   
36   1   
37   1   
38   1   
39   1   
40   1   
41   1   
42   1   
43   1   
44   1   
45   1   
46   1   
47   1   
48   1   
49   1   
50   1   
51   1   
52   1   
53   1   
54   1   
55   1   
56   1   
57   1   
58   1   
59   1   
60   1   
61   1   
62   1   
63   1   
64   1   
65   1   
66   1   
67   1   
68   1   
69   1   
70   1   
71   1   
72   1   
73   1   
74   1   
75   1   
76   1   
77   1   
78   1   
79   1   
80   1   
81   1   
82   1   
83   1   
84   1   
85   1   
86   1   
87   1   
88   1   
89   1   
90   1   
91   1   
92   1   
93   1   
94   1   
95   1   
96   1   
97   1   
98   1   
99   1   
100  1   
101  1   
DEPOT_SECTION
1
-1
EOF
