data/CVRPLIB/Vrp-Set-XML100/solutions/XML100_1212_09.sol
Route #1: 70 60 93 2 24
Route #2: 1 15 41 32 11
Route #3: 42 97 86 67 54
Route #4: 49 75 39 66 73
Route #5: 19 85 64 9 91
Route #6: 31 46 28 89 57
Route #7: 12 62 82 59 76
Route #8: 77 88 34 84 21
Route #9: 55 63 95 3 30
Route #10: 5 69 23 61 8
Route #11: 40 10 52 14 72
Route #12: 71 43 38 7 74
Route #13: 51 4 29 53 50
Route #14: 79 78 48 80 92
Route #15: 47 65 20 33 44
Route #16: 56 87 37 6 36
Route #17: 98 58 81 13 94
Route #18: 83 27 16 96 45
Route #19: 22 18 26 90 25
Route #20: 100 35 68 99 17
Cost 20586
